!init OPT_LOOK="akopia"; OPT_STYLE="manual"
# $Id: icadvanced.sdf,v 1.1 2001-04-10 21:28:33 jon Exp $

!define DOC_NAME "Advanced Interchange Topics"
!define DOC_TYPE ""
!define DOC_CODE "icadvanced"
!define DOC_VERSION substr('$Revision: 1.1 $',11, -2)
!define DOC_STATUS "Draft"
!define DOC_PROJECT "Interchange"
!define DOC_URL "http://help.akopia.com/interchange/doc/icadvanced.html"
!build_title

H1: Advanced Interchange Topics

* Maintaining production Interchange servers
* Interchange Administration Tool Development
* Making catalog skeletons for use with makecat


H1: Maintaining Interchange

Some utilities are supplied in the VendRoot/bin directory:

!block example
 compile_link Compiles an Interchange vlink or tlink CGI link
 configdump   Dumps the configuration directives for a particular catalog
 dump         Dumps the session file for a particular catalog
 expire       Expires sessions for a particular catalog
 expireall    Expires all catalogs
 makecat      Make catalog
!endblock

Some example scripts for other functions are in the C<eg/> directory of the software distribution.

Some thought should be given to where the databases, error logs, and session files should be located, especially on an ISP that might have multiple users sharing an Interchange server. In particular, put all of the session files and logs in a directory that is not writable by the user. This eliminates the possibility that the catalog may crash if the directory or file is corrupted.

To test the format of user catalog configuration files before restarting the server, set (from VendRoot):

!block example
   bin/interchange -test
!endblock

This will check all configuration files for syntax errors, which might otherwise prevent a catalog from booting. Once a catalog configures properly, user reconfiguration will not crash it. It will just cause an error. But, it must come up when the server is started.

H2: Starting, Stopping, and Re-starting the Servers

The following commands need to have VENDROOT changed to the main directory where Interchange is installed. If the Interchange base directory is C</home/interchange/>, the start command would be C</home/interchange/bin/interchange>.

Do a C<perldoc VENDROOT/bin/interchange> for full documentation.

To start the server with default settings:

!block example
   VENDROOT/bin/interchange
!endblock

Assuming the server starts correctly, the names of catalogs as they are configured will be displayed, along with a message stating the process ID it is running under.

It is usually best to issue a restart instead. It doesn't hurt to do a restart if you're actually starting the first time. And, if a server is already running (from this VENDROOT), a new start attempt will fail. To restart the server:

!block example
   VENDROOT/bin/interchange -restart
!endblock

The C<-r> option is the same as C<-restart>.

This is typically done to force Interchange to re-read its configuration. A message will be displayed stating that a TERM signal has been sent to the process ID the servers are running under. This information is also sent to C<VENDROOT/error.log>. Check the error.log file for confirmation that the server has restarted properly.

To stop the server:

!block example
   VENDROOT/bin/interchange -stop
!endblock

A message will be displayed stating that a TERM signal has been sent to the process ID the server is running under. This information is also sent to C<VENDROOT/error.log>.

Because processes waiting for selection on some operating systems block signals, they may have to wait for HouseKeeping seconds to stop. The default is 60.

To terminate the Interchange server with prejudice, in the event it will not stop:

!block example
   VENDROOT/bin/interchange -kill
!endblock

H2: UNIX and INET modes

Both UNIX-domain and INET-domain sockets can be used for communication. INET domain sockets are useful when more than one web server, connected via a local-area network (LAN), is used for accessing an Interchange server.

{{B:Important note:}} When sending sensitive information like credit card numbers over a network, always ensure that the data is secured by a firewall, or that the Interchange server runs on the same machine as any SSL-based server used for encryption.

Use the C<->i and C<->u flags if you only want to use one communication method:

!block example
   # Start only in UNIX mode
   VENDROOT/bin/interchange -r -u

   # Start only in INET mode
   VENDROOT/bin/interchange -r -i
!endblock

H2: User Reconfiguration

The individual catalogs can be reconfigured by the user by running the [reconfig] support tag. This should be protected by one of the several forms of Interchange authentication, preferably by HTTP basic authorization. See C<RemoteUser>.

The command line can be reconfigured (as the Interchange user) with:

!block example
   VENDROOT/bin/interchange -reconfig <catalog>
!endblock

It is easy for the administrator to manually reconfigure a catalog. Interchange simply looks for a file C<etc/reconfig> (based in the Interchange software directory) at HouseKeeping time. If it finds a script name that matches one of the catalogs, it will reconfigure that catalog.

H2: Expiring Sessions

If Interchange is using DBM capability to store the sessions, periodically expire old sessions to keep the session database file from growing too large.

!block example
   expire -c catalog
!endblock

There is also an C<expireall> script which reads all catalog entries in C<interchange.cfg> and runs C<expire> on them. The C<expire> script accepts a C<-r> option which tells it to recover lost disk space.

On a UNIX server, add a crontab entry such as the following:

!block example
   # once a day at 4:40 am
   40 4 * * *    perl /home/interchange/bin/expireall -r
!endblock

Interchange will wait until the current transaction is finished before expiring, so this can be done at any time without disabling web access. Any search paging files for the affected session (kept in C<ScratchDir>) will be removed as well.

If not running DBM sessions, use a Perl script to delete all files not modified in the last one or two days. The following will work if given an argument of a session directory or session files:

!block example
   #!perl
   # expire_sessions.pl -- delete files 2 days old or older

   my @files;
   my $dir;
   foreach $dir (@ARGV) {
       # just push files on the list
       if (-f $dir) { push @files, $_; next; }

       next unless -d $dir;

       # get all the file names in the directory
       opendir DIR, $dir or die "opendir $dir: $!\n";
       push @files, ( map { "$dir/$_" } grep(! /^\.\.?$/, readdir DIR) ) ;
   }

   for (@files) {
       unless (-f $_) {
           warn "skipping $_, not a file.\n";
           next;
       }
       next unless -M $_ >= 2;
       unlink $_ or die "unlink $_: $!\n";
   }
!endblock

It would be run with a command invocation like:

!block example
   perl expire_sessions.pl /home/you/catalogs/simple/session
!endblock

Multiple directory names are acceptable, if there is more than one catalog.

This script can be adjusted as necessary. Refinements might include reading the file to "eval" the session reference and expire only customers who are not members.

H2: My session files change to owner root every day!

You have the expireall C<-r> entry in the root crontab, and it should either be in the Interchange user crontab or run as:

!block example
44 4 * * * su -c "/INTERCHANGE_ROOT/bin/expireall -r" INTERCHANGE_USERNAME
!endblock


H1: Interchange Administration Tool Development

This section describes how to administer a commerce site with Interchange's back-office functionality, and discusses site management and security.

H1: Tracking and Back-End Order Entry

Interchange allows the entry of orders into a system through one of several methods. The C<AsciiBackend> capability allows submission of parameters to an external order entry script. Support for SQL allows the entry of orders directly into an SQL database. Orders can be written to an ASCII file. They can be formatted precisely for e-mail-based systems. The orders can be placed in a DBM file. Finally, embedded Perl allows completely flexible order entry, including real-time credit card verification and settlement.

H2: ASCII Backup Order Tracking

If C<AsciiTrack> is set to a legal file name (based in VendRoot unless it has a leading "/"). A copy of the order is saved and sent in an e-mail.

If the file name string begins with a pipe "|," a program will be run and the output "piped" to that program. This allows easy back-end entry of orders with an external program.

H2: Database Tracking

Once the order report is processed, the order is complete. Therefore, it is the ideal place to put Interchange tags that make order entries in database tables.

A good model is to place a single record in a database summarizing the order and a series of lines that correspond to each line item in the order. This can be in the same database table. If the order number itself is the key for the summary, a line number can be appended to the order number to show each line of the order.

The following would summarize a sample order number S00001 for part number 00-0011 and 99-102:

!block example
   code     order_number part_number  quantity   price    shipping  tax
   S00001   S00001                    3          2010     12.72     100.50
   S00001-1 S00001       00-0011      2          1000     UPS       yes
   S00001-2 S00001       99-102       1          10       UPS       yes
!endblock

Fields can be added where needed, perhaps with order status, shipping tracking number, address, customer number, or other information.

The above is accomplished with Interchange's C<[import ....]> tag using the convenient C<NOTES> format:

!block example
   [set import_status]
   [import table=orders type=LINE continue=NOTES]

   code: [value mv_order_number]
   order_number: [value mv_order_number]
   quantity: [nitems]
   price: [subtotal noformat=1]
   shipping: [shipping noformat=1]
   tax: [salestax noformat=1]

   [/import]

   [item-list]
   [import table=orders type=LINE continue=NOTES]

   code: [value mv_order_number]-[item-increment]
   order_number: [value mv_order_number]
   quantity: [item-quantity]
   price: [item-price noformat=1]
   shipping: [shipping-description]
   tax: [if-item-field nontaxable]No[else]Yes[/else][/if]

   [/import][/item-list]
!endblock

H2: Custom Order Routing

Interchange can send order emails and perform custom credit card charges and/or logging for each item. The Route directive is used to control this behavior, along with the C<mv_order_route> item attribute and C<mv_order_route> form variable.

Routes are established with the C<Route> directive, which is similar to the C<Locale> directive. Each route is like a locale, so that key-value pairs can be set. Here is an example setting:

!block example
   Route  VEN  pgp_key         0x67798115
   Route  VEN  email           orders@akopia.com
   Route  VEN  reply           service@akopia.com
   Route  VEN  encrypt         1
   Route  VEN  encrypt_program "/usr/bin/pgpe -fat -q -r %s"
   Route  VEN  report          etc/report_mail
!endblock

This route would be used whenever the value C<VEN> was contained in the form variable C<mv_order_route>.

The last route that is defined provides the defaults for all other routes. For example, if C<encrypt_program> is set there, then the same value will be the default for all routes.

The attributes that can be set are:

LI1: attach
.Determines whether the order report should be attached to the main order report e-mail. This is useful if certain items must be printed separately from others, perhaps for FAX to a fulfillment house.

LI1: counter
.The location of a counter file which should be used instead of C<OrderCounter> for this route. It will generate a different value for C<mv_order_number> for the route.

LI1: credit_card
.Determines whether credit card encryption should be done for this order. Either this or C<encrypt> should always be set.

LI1: cybermode
.If this is set, enables I<CyberCash> for the route. Variables can also be set for C<CYBER_CONFIGFILE>, C<CYBER_SECRET>, and all other normal CYBERCASH variables. For example:

!block example; listitem=2
   Route VEN cybermode         mauthonly
   Route VEN CYBER_CONFIGFILE  config/vendor1_cfg
   Route VEN CYBER_VERSION     3.2
!endblock

LI1: email
.The email address(es) where the order should be sent. Set just like the C<MailOrderTo> directive, which is also the default.

LI1: encrypt
.Whether the entire order should be encrypted with the B<encrypt_program>.
If C<credit_card> is set, the credit card will first be encrypted, then the entire order encrypted.

LI1: encrypt_program
.The encryption program incantaton which should be used. Set identically to the C<EncryptProgram> directive, except that %s will be replaced with the C<pgp_key>. Default is C<pgpe -fat -r %s>.

LI1: errors_to
.Sets the C<Errors-To:> e-mail header so that bounced orders will go to the proper address. Default is the same as C<MailOrderTo>.

LI1: increment
.Whether the order number should be incremented as a result of this result. Default is not to increment, as the order number should usually be the same for different routes within the same customer order.

LI1: individual_track
.A directory where individual order tracking files will be placed. The file name will correspond to the value of C<mv_order_number>. This can be useful for batching orders via download.

LI1: individual_track_ext
.The extension that will be added to the file name for C<individual_track>.
Must contain a period (C<.>), if that is desired.

!block example
   individual_track_ext     .pgp
!endblock

LI1: pgp_cc_key
.The PGP key selector that is used to determine which public key is used for encryption of credit cards only. With PGP 5 and 6, see appropriate values by using the command C<pgpk -l>.

LI1: pgp_key
.The PGP key selector that is used to determine which public key is used for encryption. If C<pgp_cc_key> is set, that key will be used for credit card encryption instead of C<pgp_key>. With PGP 5 and 6, see appropriate values by using the command C<pgpk -l>.

LI1: profile
.The custom order profile which should be performed to check the order. If it fails, the route will not be performed. See C<OrderProfile> and C<mv_order_profile>.

LI1: receipt
.The receipt page that should be used for this routing. This only applies if supplant is set for the route.

LI1: report
.The report page that should be used for this routing. If C<attach> is defined, the contents of the report will be placed in a MIME attachment in the main order report.

LI1: reply
.The C<Reply-To> header that should be set. Default is the same as C<email>.
.If there are only word characters (A-Za-z0-9 and underscore), it describes an Interchange variable name where the address can be found.

LI1: supplant
.Whether this route should supplant the main order report. If set, the C<AsciiTrack> operation will use this route and the normal Interchange order e-mail sequence will not be performed.

LI1: track
.The name of a file which should be used for tracking. If the C<supplant> attribute is set, the normal order tracking will be used as well.

LI1: track_mode
.A number representing the mode to change either C<track> or C<individual_track> files.

An individual item routing causes all items labeled with that route to be placed in a special sub-cart that will be used for the order report. This means that the C<[item-list] LIST [/item-list]> will only contain those items, allowing operations to be performed on subsets of the complete order.

Here is an example of an order routing:

!block example
   Route  HARD  pgp_key          0x67798115
   Route  HARD  email            hardgoods@akopia.com
   Route  HARD  reply            service@akopia.com
   Route  HARD  encrypt          1
   Route  HARD  encrypt_program  "/usr/bin/pgpe -fat -q -r %s"
   Route  HARD  report           etc/report_mail

   Route  SOFT  email            ""
   Route  SOFT  profile          create_download_link
   Route  SOFT  empty            1

   Route  main  cybermode        mauthonly
   Route  main  CYBER_VERSION    3.2
   Route  main  CYBER_CONFIGFILE etc/cybercash.cfg
   Route  main  pgp_key          0x67798115
   Route  main  email            orders@akopia.com
   Route  main  reply            service@akopia.com
   Route  main  encrypt          1
   Route  main  encrypt_program  "/usr/bin/pgpe -fat -q -r %s"
   Route  main  report           etc/report_all
!endblock

To tell Interchange that order routing is in effect, the variable
C<mv_order_route> is set on the final order submission form:

!block example
   <INPUT TYPE="hidden" NAME="mv_order_route" VALUE="main">
!endblock

To set the order routing for individual items, some method of determining their status must be made and the C<mv_order_route> attribute must be set. This could be set at the time of the item being placed in the basket, or have a database field called C<goods_type> set to the appropriate value. The following example uses a Perl routine on the final order form:

!block example
[perl arg=carts interpolate=1]
   my $string = <<'EOF';
[item-list][item-code]  [item-field goods_type]
[/item-list]
EOF
   my @items;
   my %route;
   @items = grep /\S/, split /\n+/, $string;
   for(@items) {
       my ($code, $keycode) = split /\t/, $_;
       $route{$code} = $keycode;
   }
   my $cart = $Carts->{'main'};
   my $item;
   foreach $item ( @{ $Carts->{'main'} } ) {
       $item->{mv_order_route} = $route{$item->{'code'}} || undef;
   }
   return '';
[/perl]
!endblock

Now the individual items are labeled with a C<mv_order_route> value which causes their inclusion in the appropriate order routing.

Upon submission of the order form, any item labeled C<HARD> will be accumulated and sent to the e-mail address C<hardgoods@akopia.com>, where the item will be pulled from inventory and shipped.

Any item labeled C<SOFT> will be passed to the order profile C<create_download_link>, which will place it in a staging area for customer download. (This would be supported by a link on the receipt, possibly by reading a value set in the profile).

The C<main> order routing will use CyberCash to charge the order, and will be completely encrypted for e-mailing.

H1: Administering Interchange

Some utilities are supplied with Interchange and are located in the VendRoot/bin directory:

!block example
 compile_link Compiles an Interchange vlink or tlink CGI link
 dump         Dumps the session file for a particular catalog
 expire       Expires sessions for a particular catalog
 expireall    Expires all catalogs
 offline      Does offline build of the database(s)
 update       Does in-place update of the database(s)
 makecat      Make catalog
!endblock

Some example scripts for other functions are in the C<eg/> directory of the software distribution.

Some thought should be given to where the databases, error logs, and session files should be located, especially on an Internet Service Provider (ISP) that might have multiple users sharing an Interchange server. In particular, it is recommended that all of the session files and logs be put in a directory that is not writable by the user. If the directory or file is corrupted, the catalog may crash.

To test the format of user catalog configuration files before restarting the server, perform the following test (from VendRoot):

!block example
   bin/interchange -test
!endblock

This will check all configuration files for syntax errors, which might otherwise prevent a catalog from loading. Once a catalog configures properly, user reconfiguration will not crash it, but cause an error. It must be loaded when the server is started.

H2: Starting, Stopping, and Re-starting the Servers

The following commands need to have VENDROOT replaced with the main directory where Interchange is installed. If /usr/local/interchange is the site's Interchange base directory, the start command would be:

C</usr/local/interchange/bin/interchange>.

Do a C<perldoc VENDROOT/bin/interchange> for full documentation.

To start the server with default settings:

!block example
   VENDROOT/bin/interchange
!endblock

It is recommended to issue a restart, otherwise the server will not run anew if a server is already running.

!block example
   VENDROOT/bin/interchange -restart
!endblock

Assuming the server starts correctly, the names of catalogs as they are configured will be displayed, along with a message stating the process ID it is running under.

To re-start the server:

!block example
   VENDROOT/bin/interchange -restart
!endblock

C<-r> is the same as C<-restart>.

This is typically done to force Interchange to re-read its configuration. A message will be displayed stating that a C<TERM> signal has been sent to the process ID the server is running under. This information is also sent to /usr/local/interchange/error.log. Check the error.log file for confirmation that the server has restarted properly.

To stop the server:

!block example
   VENDROOT/bin/interchange -stop
!endblock

A message will be displayed stating that a C<TERM> signal has been sent to the process ID the server is running under. This information is also sent to /usr/local/interchange/error.log.

Because processes waiting for selection on some operating systems block signals, they may have to wait for HouseKeeping seconds to stop. The default is 60.

To terminate the Interchange server with prejudice, in case it will not stop, set:

!block example
   VENDROOT/bin/interchange -kill
!endblock

H2: UNIX and INET Modes

Both UNIX-domain and INET-domain sockets can be used for communication. INET domain sockets are useful when more than one Web server, connected via a local-area network (LAN), is used for accessing an Interchange server.

IMPORTANT NOTE: When sending sensitive information like credit card numbers over a network, always ensure that the data is secured by a firewall, or that the Interchange server runs on the same machine as any SSL-based server used for encryption.

If only running a site with one method of communication, use the C<->i and C<->u flags.

!block example
   # Start only in UNIX mode
   VENDROOT/bin/interchange -r -u

   # Start only in INET mode
   VENDROOT/bin/interchange -r -i
!endblock

H2: User Reconfiguration

The individual catalogs can be reconfigured by the user by running the C<[reconfig]> support tag. This should be protected by one of the several forms of Interchange authentication, preferably by HTTP basic authorization. See C<RemoteUser>.

Use reconfigure from the command line (as the Interchange user) with:

!block example
   VENDROOT/bin/interchange -reconfig <catalog>
!endblock

It is easy to manually reconfigure a catalog as an administrator. Interchange simply looks for a file C<etc/reconfig> (based in the Interchange software directory) at HouseKeeping time. If it finds a script name that matches one of the catalogs, it will reconfigure that catalog.

H2: Making the Product Database

The DBM product databases can be built off-line with the C<offline> command. The directory to be used for output is specified either on the command line with the C<-d> option, or is taken from the C<catalog.cfg> directive OfflineDir; C<offline> in the catalog directory by default. The directory must exist. The source ASCII files should be present in that directory, and the DBM files are created there. Existing files will be overwritten.

!block example
   offline -c catalog [-d offline_dir]
!endblock

Do a C<perldoc VENDROOT/bin/offline> for full documentation.

H2: Updating Individual Records

If a site has a very large DBM database that takes time to build, consider using the C<bin/update> script to change just one field in a record, or to add from a corrections list.

The following updates the products database C<price> field for item 19-202 with the new value 25.00

!block example
   update -c catalog -k 19-202 -f price 25.00
!endblock

More than one field can be updated on a single command line.

!block example
   update -c catalog -k 19-202 -f price -f comment 25.00 "That pitchfork couple"
!endblock

The following takes input from C<file>, which must be B<formatted exactly like the original database> and adds/corrects any records contained therein.

!block example
   update -c catalog -i file
!endblock

Invoke the command without any arguments for a usage message describing the options.

H2: Expiring Sessions

If a site has DBM capability and Interchange is using it to store the sessions, periodically expire old sessions to keep the session database file from growing too large.

!block example
   expire -c catalog
!endblock

There is also an C<expireall> script which reads all catalog entries in C<interchange.cfg> and runs C<expire> on them.

The C<expire> script accepts a C<-r> option which tells it to recover lost disk space.

On a UNIX server, add a crontab entry such as the following:

!block example
   # once a day at 4:40 am
   40 4 * * *    perl /usr/local/interchange/bin/expireall -r
!endblock

Interchange will wait until the current transaction is finished before expiring, so that this can be done at any time without disabling Web access. Any search paging files for the affected session (kept in C<ScratchDir>) will be removed as well.

If not running DBM sessions, a Perl script can be used to delete all files not modified in the last one or two days. The following will work if given an argument of the session directory or session files:

!block example
   #!perl
   # expire_sessions.pl -- delete files 2 days old or older

   my @files;
   my $dir;
   foreach $dir (@ARGV) {
       # just push files on the list
       if (-f $dir) { push @files, $_; next; }

       next unless -d $dir;

       # get all the file names in the directory
       opendir DIR, $dir or die "opendir $dir: $!\n";
       push @files, ( map { "$dir/$_" } grep(! /^\.\.?$/, readdir DIR) ) ;
   }

   for (@files) {
       unless (-f $_) {
           warn "skipping $_, not a file.\n";
           next;
       }
       next unless -M $_ >= 2;
       unlink $_ or die "unlink $_: $!\n";
   }
!endblock

It would be run with a command invocation like:

!block example
   perl expire_sessions.pl /usr/local/interchange/catalogs/construct/session
!endblock

Give it multiple directory names, if there is more than one catalog.

This script can be adjusted or refined as needed. Refinements might include reading the file to "eval" the session reference and expire only customers who are not members.

H2: Administrator Permissions

Select which operations each administrator can perform in the back office. Each section of the back office can be restricted with fine-grained control. An administrator can be given access to view the list of all orders, for instance, but not allowed to view details. Access to the rows of Interchange's internal tables can also be restricted on a per-table basis for each administrator.

H2: Administrators

The Access Manager allows an administrator to create user accounts or groups of users and restrict the use of certain features. This feature is especially useful if a company has employees that need the ability to check orders, but not change Web content. Note that, by default, users in the back office are stored and managed separately from customer login accounts. Users can have permissions granted on an individual basis, or by group. If a user is a "super-user," all other permissions settings will be ignored and the user will be allowed to do anything.

H2: Administrators: Edit Affiliates

Affiliates have the following attributes:

"Affiliate ID" is displayed in the order and traffic statistics along with the orders and traffic they produce.

"Affiliate Name" is the name of the affiliate.

"Campaigns" can be used to track traffic from advertising campaigns.

"Join_date" can be used to keep track of when the affiliate signed up.

"URL" is used, if present, to redirect visitors coming from this affiliate to a special home page just for visitors from that affiliate's site. This should not be the URL of the Affiliate's home site.

"Timeout delay" can be used to specify that orders attributed to this affiliate must happen within a certain amount of time from the time they were referred to the site by the affiliate. Measured in seconds.

H2: Direct Table Edit

Edit any of Interchange's internal tables. Select a table to edit, or search a table for selected rows to edit.

H2: Direct Table Edit: Select for Table Edit

Having selected a table to edit, a new row can be added, an existing row edited, all rows edited spreadsheet-style, or a row deleted.

H2: File Transfer

Transfer pages, templates, and configuration files to and from the Interchange installation. Select C<Pages> to transfer files that will be visible to site visitors. Select C<catalog.cfg> to edit the configuration file for the store. C<Upload> (send a file to the server), C<download> (send a file from the server to a computer), C<view>, or C<edit> available files.

H2: Import/Export

Interchange makes it easy to import and export data to and from a commerce Web site.

Use C<Database Upload> to import a tab delimited database of all product information to Interchange to make set-up faster and easier. C<Database Download> does just the opposite, allowing data to be downloaded from Interchange.

Use C<Layout Upload> to upload a site's layout information. Use C>Layout Download> to download a site's layout information.

H2: Logout

This feature will only be useful if there are multiple users in the Access Manager. When C<logout> is clicked, a user will be asked to log in again. If C<logout> is pressed in error, the user must log in again.

H2: Meta Field Information
